Si
5.44
  1.00  0.00  0.00
  0.00  1.00  0.00
  0.00  0.00  1.00
Si
8
direct
 0.75  0.75  0.25
 0.00  0.50  0.50
 0.75  0.25  0.75
 0.00  0.00  0.00
 0.25  0.75  0.75
 0.50  0.50  0.00
 0.25  0.25  0.25
 0.50  0.00  0.50
