C2+C2
    1.000000000
   10.000000000    0.000000000    0.000000000
    0.000000000   17.271038055    0.000000000
    0.000000000    0.000000000   27.684305191
C     H
82     15
Direct
    0.249999985    0.857590735    0.000000000
    0.249999985    0.929019332    0.077182270
    0.249999985    0.000447869    0.154364484
    0.249999985    0.714733541    0.000000000
    0.249999985    0.786162138    0.077182270
    0.249999985    0.857590735    0.154364503
    0.249999985    0.571876407    0.000000000
    0.249999985    0.643305004    0.077182270
    0.249999985    0.714733541    0.154364522
    0.249999985    0.429019302    0.000000000
    0.249999985    0.500447869    0.077182270
    0.249999985    0.571876466    0.154364503
    0.249999985    0.286162138    0.000000000
    0.249999985    0.357590735    0.077182276
    0.249999985    0.429019272    0.154364503
    0.249999985    0.143305004    0.000000000
    0.249999985    0.214733586    0.077182270
    0.249999985    0.286162138    0.154364484
    0.249999985    0.000447861    0.000000000
    0.249999985    0.071876436    0.077182261
    0.249999985    0.143305019    0.154364503
    0.249999985    0.929019272    0.025727424
    0.249999985    0.000447869    0.102909669
    0.249999985    0.071876407    0.180091925
    0.249999985    0.786162198    0.025727415
    0.249999985    0.857590795    0.102909679
    0.249999985    0.929019392    0.180091906
    0.249999985    0.643305004    0.025727436
    0.249999985    0.714733601    0.102909679
    0.249999985    0.786162138    0.180091925
    0.249999985    0.500447869    0.025727432
    0.249999985    0.571876466    0.102909679
    0.249999985    0.643305004    0.180091925
    0.249999985    0.357590765    0.025727420
    0.249999985    0.429019332    0.102909679
    0.249999985    0.500447929    0.180091925
    0.249999985    0.214733586    0.025727432
    0.249999985    0.286162168    0.102909679
    0.249999985    0.357590735    0.180091925
    0.249999985    0.071876436    0.025727432
    0.249999985    0.143305019    0.102909679
    0.249999985    0.214733601    0.180091925
    0.249999985    0.326032639    0.498560566
    0.249999985    0.826032877    0.320315826
    0.249999985    0.201032996    0.364877030
    0.249999985    0.576032877    0.409438234
    0.249999985    0.951032758    0.453999476
    0.249999985    0.076032877    0.498560604
    0.249999985    0.576032937    0.320315826
    0.249999985    0.951032937    0.364877030
    0.249999985    0.326032877    0.409438196
    0.249999985    0.701032758    0.453999476
    0.249999985    0.826032758    0.498560604
    0.249999985    0.326032966    0.320315788
    0.249999985    0.701032996    0.364877030
    0.249999985    0.076032877    0.409438196
    0.249999985    0.451032758    0.453999476
    0.249999985    0.576032758    0.498560604
    0.249999985    0.076032981    0.320315788
    0.249999985    0.451032996    0.364877030
    0.249999985    0.826032877    0.409438196
    0.249999985    0.201032758    0.453999400
    0.249999985    0.409365892    0.498560604
    0.249999985    0.909366190    0.320315788
    0.249999985    0.284366131    0.364876992
    0.249999985    0.659366250    0.409438234
    0.249999985    0.034366131    0.453999400
    0.249999985    0.159366131    0.498560642
    0.249999985    0.659366190    0.320315788
    0.249999985    0.034366250    0.364876992
    0.249999985    0.409366250    0.409438234
    0.249999985    0.784366131    0.453999400
    0.249999985    0.909366131    0.498560642
    0.249999985    0.409366310    0.320315826
    0.249999985    0.784366310    0.364876992
    0.249999985    0.159366250    0.409438196
    0.249999985    0.534366250    0.453999438
    0.249999985    0.659366131    0.498560680
    0.249999985    0.159366310    0.320315788
    0.249999985    0.534366310    0.364877030
    0.249999985    0.909366190    0.409438196
    0.249999985    0.284366250    0.453999438
    0.250000000    0.044199999    0.532874050
    0.250000000    0.191000000    0.532874050
    0.250000000    0.294000000    0.532874050
    0.250000000    0.441000015    0.532874050
    0.250000000    0.544000030    0.532874050
    0.250000000    0.690999985    0.532874050
    0.250000000    0.794000030    0.532874050
    0.250000000    0.940999985    0.532874050
    0.250000000    0.000450000    0.960395375
    0.250000000    0.143309996    0.960395375
    0.250000000    0.286159992    0.960395375
    0.250000000    0.429019988    0.960395375
    0.250000000    0.571879983    0.960395375
    0.250000000    0.714730024    0.960395375
    0.250000000    0.857590020    0.960395375
