c1
    1.000000000
   17.247999906    0.000000000    0.000000000
   -8.623999953   14.937206084    0.000000000
    0.000000000    0.000000000   12.02983500
C    
196
Direct
    0.000000000    0.000000000    0.000000000
    0.142857143    0.000000000    0.000000000
    0.285714286    0.000000000    0.000000000
    0.428571429    0.000000000    0.000000000
    0.571428571    0.000000000    0.000000000
    0.714285714    0.000000000    0.000000000
    0.857142857    0.000000000    0.000000000
    0.000000000    0.142857143    0.000000000
    0.142857143    0.142857143    0.000000000
    0.285714286    0.142857143    0.000000000
    0.428571429    0.142857143    0.000000000
    0.571428571    0.142857143    0.000000000
    0.714285714    0.142857143    0.000000000
    0.857142857    0.142857143    0.000000000
    0.000000000    0.285714286    0.000000000
    0.142857143    0.285714286    0.000000000
    0.285714286    0.285714286    0.000000000
    0.428571429    0.285714286    0.000000000
    0.571428571    0.285714286    0.000000000
    0.714285714    0.285714286    0.000000000
    0.857142857    0.285714286    0.000000000
    0.000000000    0.428571429    0.000000000
    0.142857143    0.428571429    0.000000000
    0.285714286    0.428571429    0.000000000
    0.428571429    0.428571429    0.000000000
    0.571428571    0.428571429    0.000000000
    0.714285714    0.428571429    0.000000000
    0.857142857    0.428571429    0.000000000
    0.000000000    0.571428571    0.000000000
    0.142857143    0.571428571    0.000000000
    0.285714286    0.571428571    0.000000000
    0.428571429    0.571428571    0.000000000
    0.571428571    0.571428571    0.000000000
    0.714285714    0.571428571    0.000000000
    0.857142857    0.571428571    0.000000000
    0.000000000    0.714285714    0.000000000
    0.142857143    0.714285714    0.000000000
    0.285714286    0.714285714    0.000000000
    0.428571429    0.714285714    0.000000000
    0.571428571    0.714285714    0.000000000
    0.714285714    0.714285714    0.000000000
    0.857142857    0.714285714    0.000000000
    0.000000000    0.857142857    0.000000000
    0.142857143    0.857142857    0.000000000
    0.285714286    0.857142857    0.000000000
    0.428571429    0.857142857    0.000000000
    0.571428571    0.857142857    0.000000000
    0.714285714    0.857142857    0.000000000
    0.857142857    0.857142857    0.000000000
    0.000000000    0.000000000    0.69428092808
    0.142857143    0.000000000    0.69428092808
    0.285714286    0.000000000    0.69428092808
    0.428571429    0.000000000    0.69428092808
    0.571428571    0.000000000    0.69428092808
    0.714285714    0.000000000    0.69428092808
    0.857142857    0.000000000    0.69428092808
    0.000000000    0.142857143    0.69428092808
    0.142857143    0.142857143    0.69428092808
    0.285714286    0.142857143    0.69428092808
    0.428571429    0.142857143    0.69428092808
    0.571428571    0.142857143    0.69428092808
    0.714285714    0.142857143    0.69428092808
    0.857142857    0.142857143    0.69428092808
    0.000000000    0.285714286    0.69428092808
    0.142857143    0.285714286    0.69428092808
    0.285714286    0.285714286    0.69428092808
    0.428571429    0.285714286    0.69428092808
    0.571428571    0.285714286    0.69428092808
    0.714285714    0.285714286    0.69428092808
    0.857142857    0.285714286    0.69428092808
    0.000000000    0.428571429    0.69428092808
    0.142857143    0.428571429    0.69428092808
    0.285714286    0.428571429    0.69428092808
    0.428571429    0.428571429    0.69428092808
    0.571428571    0.428571429    0.69428092808
    0.714285714    0.428571429    0.69428092808
    0.857142857    0.428571429    0.69428092808
    0.000000000    0.571428571    0.69428092808
    0.142857143    0.571428571    0.69428092808
    0.285714286    0.571428571    0.69428092808
    0.428571429    0.571428571    0.69428092808
    0.571428571    0.571428571    0.69428092808
    0.714285714    0.571428571    0.69428092808
    0.857142857    0.571428571    0.69428092808
    0.000000000    0.714285714    0.69428092808
    0.142857143    0.714285714    0.69428092808
    0.285714286    0.714285714    0.69428092808
    0.428571429    0.714285714    0.69428092808
    0.571428571    0.714285714    0.69428092808
    0.714285714    0.714285714    0.69428092808
    0.857142857    0.714285714    0.69428092808
    0.000000000    0.857142857    0.69428092808
    0.142857143    0.857142857    0.69428092808
    0.285714286    0.857142857    0.69428092808
    0.428571429    0.857142857    0.69428092808
    0.571428571    0.857142857    0.69428092808
    0.714285714    0.857142857    0.69428092808
    0.857142857    0.857142857    0.69428092808
    0.047619049    0.095238098    0.000000000
    0.190476191    0.095238098    0.000000000
    0.333333334    0.095238098    0.000000000
    0.476190477    0.095238098    0.000000000
    0.619047620    0.095238098    0.000000000
    0.761904763    0.095238098    0.000000000
    0.904761906    0.095238098    0.000000000
    0.047619049    0.238095240    0.000000000
    0.190476191    0.238095240    0.000000000
    0.333333334    0.238095240    0.000000000
    0.476190477    0.238095240    0.000000000
    0.619047620    0.238095240    0.000000000
    0.761904763    0.238095240    0.000000000
    0.904761906    0.238095240    0.000000000
    0.047619049    0.380952383    0.000000000
    0.190476191    0.380952383    0.000000000
    0.333333334    0.380952383    0.000000000
    0.476190477    0.380952383    0.000000000
    0.619047620    0.380952383    0.000000000
    0.761904763    0.380952383    0.000000000
    0.904761906    0.380952383    0.000000000
    0.047619049    0.523809526    0.000000000
    0.190476191    0.523809526    0.000000000
    0.333333334    0.523809526    0.000000000
    0.476190477    0.523809526    0.000000000
    0.619047620    0.523809526    0.000000000
    0.761904763    0.523809526    0.000000000
    0.904761906    0.523809526    0.000000000
    0.047619049    0.666666669    0.000000000
    0.190476191    0.666666669    0.000000000
    0.333333334    0.666666669    0.000000000
    0.476190477    0.666666669    0.000000000
    0.619047620    0.666666669    0.000000000
    0.761904763    0.666666669    0.000000000
    0.904761906    0.666666669    0.000000000
    0.047619049    0.809523812    0.000000000
    0.190476191    0.809523812    0.000000000
    0.333333334    0.809523812    0.000000000
    0.476190477    0.809523812    0.000000000
    0.619047620    0.809523812    0.000000000
    0.761904763    0.809523812    0.000000000
    0.904761906    0.809523812    0.000000000
    0.047619049    0.952380955    0.000000000
    0.190476191    0.952380955    0.000000000
    0.333333334    0.952380955    0.000000000
    0.476190477    0.952380955    0.000000000
    0.619047620    0.952380955    0.000000000
    0.761904763    0.952380955    0.000000000
    0.904761906    0.952380955    0.000000000
    0.095238094    0.047619045    0.69428092808
    0.238095237    0.047619045    0.69428092808
    0.380952380    0.047619045    0.69428092808
    0.523809522    0.047619045    0.69428092808
    0.666666665    0.047619045    0.69428092808
    0.809523808    0.047619045    0.69428092808
    0.952380951    0.047619045    0.69428092808
    0.095238094    0.190476188    0.69428092808
    0.238095237    0.190476188    0.69428092808
    0.380952380    0.190476188    0.69428092808
    0.523809522    0.190476188    0.69428092808
    0.666666665    0.190476188    0.69428092808
    0.809523808    0.190476188    0.69428092808
    0.952380951    0.190476188    0.69428092808
    0.095238094    0.333333331    0.69428092808
    0.238095237    0.333333331    0.69428092808
    0.380952380    0.333333331    0.69428092808
    0.523809522    0.333333331    0.69428092808
    0.666666665    0.333333331    0.69428092808
    0.809523808    0.333333331    0.69428092808
    0.952380951    0.333333331    0.69428092808
    0.095238094    0.476190473    0.69428092808
    0.238095237    0.476190473    0.69428092808
    0.380952380    0.476190473    0.69428092808
    0.523809522    0.476190473    0.69428092808
    0.666666665    0.476190473    0.69428092808
    0.809523808    0.476190473    0.69428092808
    0.952380951    0.476190473    0.69428092808
    0.095238094    0.619047616    0.69428092808
    0.238095237    0.619047616    0.69428092808
    0.380952380    0.619047616    0.69428092808
    0.523809522    0.619047616    0.69428092808
    0.666666665    0.619047616    0.69428092808
    0.809523808    0.619047616    0.69428092808
    0.952380951    0.619047616    0.69428092808
    0.095238094    0.761904759    0.69428092808
    0.238095237    0.761904759    0.69428092808
    0.380952380    0.761904759    0.69428092808
    0.523809522    0.761904759    0.69428092808
    0.666666665    0.761904759    0.69428092808
    0.809523808    0.761904759    0.69428092808
    0.952380951    0.761904759    0.69428092808
    0.095238094    0.904761902    0.69428092808
    0.238095237    0.904761902    0.69428092808
    0.380952380    0.904761902    0.69428092808
    0.523809522    0.904761902    0.69428092808
    0.666666665    0.904761902    0.69428092808
    0.809523808    0.904761902    0.69428092808
    0.952380951    0.904761902    0.69428092808
