c1
    1.000000000
    4.927999973    0.000000000    0.000000000
   -2.463999987    4.267773167    0.000000000
    0.000000000    0.000000000   10.710999966
C    
16
Direct
    0.000000000    0.000000000    0.250000000
    0.500000000    0.000000000    0.250000000
    0.000000000    0.500000000    0.250000000
    0.500000000    0.500000000    0.250000000
    0.000000000    0.000000000    0.749999982
    0.500000000    0.000000000    0.749999982
    0.000000000    0.500000000    0.749999982
    0.500000000    0.500000000    0.749999982
    0.166666670    0.333333342    0.250000000
    0.666666670    0.333333342    0.250000000
    0.166666670    0.833333342    0.250000000
    0.666666670    0.833333342    0.250000000
    0.333333329    0.166666657    0.749999982
    0.833333329    0.166666657    0.749999982
    0.333333329    0.666666657    0.749999982
    0.833333329    0.666666657    0.749999982
