Mg2 O2
1.0
       24.639999866         0.0000000000         0.0000000000
      -12.319999933        21.338865834         0.0000000000
        0.0000000000         0.0000000000         4.2310647964
   Mg    O
   98   98
Direct
     0.095238142         0.047618996         0.750000000
     0.095238142         0.190476134         0.750000000
     0.095238142         0.333333284         0.750000000
     0.095238142         0.476190418         0.750000000
     0.095238142         0.619047582         0.750000000
     0.095238142         0.761904716         0.750000000
     0.095238142         0.904761851         0.750000000
     0.238095284         0.047618996         0.750000000
     0.238095284         0.190476134         0.750000000
     0.238095284         0.333333284         0.750000000
     0.238095284         0.476190418         0.750000000
     0.238095284         0.619047582         0.750000000
     0.238095284         0.761904716         0.750000000
     0.238095284         0.904761851         0.750000000
     0.380952418         0.047618996         0.750000000
     0.380952418         0.190476134         0.750000000
     0.380952418         0.333333284         0.750000000
     0.380952418         0.476190418         0.750000000
     0.380952418         0.619047582         0.750000000
     0.380952418         0.761904716         0.750000000
     0.380952418         0.904761851         0.750000000
     0.523809552         0.047618996         0.750000000
     0.523809552         0.190476134         0.750000000
     0.523809552         0.333333284         0.750000000
     0.523809552         0.476190418         0.750000000
     0.523809552         0.619047582         0.750000000
     0.523809552         0.761904716         0.750000000
     0.523809552         0.904761851         0.750000000
     0.666666687         0.047618996         0.750000000
     0.666666687         0.190476134         0.750000000
     0.666666687         0.333333284         0.750000000
     0.666666687         0.476190418         0.750000000
     0.666666687         0.619047582         0.750000000
     0.666666687         0.761904716         0.750000000
     0.666666687         0.904761851         0.750000000
     0.809523880         0.047618996         0.750000000
     0.809523880         0.190476134         0.750000000
     0.809523880         0.333333284         0.750000000
     0.809523880         0.476190418         0.750000000
     0.809523880         0.619047582         0.750000000
     0.809523880         0.761904716         0.750000000
     0.809523880         0.904761851         0.750000000
     0.952381015         0.047618996         0.750000000
     0.952381015         0.190476134         0.750000000
     0.952381015         0.333333284         0.750000000
     0.952381015         0.476190418         0.750000000
     0.952381015         0.619047582         0.750000000
     0.952381015         0.761904716         0.750000000
     0.952381015         0.904761851         0.750000000
     0.047618996         0.095238142         0.250000000
     0.047618996         0.238095284         0.250000000
     0.047618996         0.380952418         0.250000000
     0.047618996         0.523809552         0.250000000
     0.047618996         0.666666687         0.250000000
     0.047618996         0.809523880         0.250000000
     0.047618996         0.952381015         0.250000000
     0.190476134         0.095238142         0.250000000
     0.190476134         0.238095284         0.250000000
     0.190476134         0.380952418         0.250000000
     0.190476134         0.523809552         0.250000000
     0.190476134         0.666666687         0.250000000
     0.190476134         0.809523880         0.250000000
     0.190476134         0.952381015         0.250000000
     0.333333284         0.095238142         0.250000000
     0.333333284         0.238095284         0.250000000
     0.333333284         0.380952418         0.250000000
     0.333333284         0.523809552         0.250000000
     0.333333284         0.666666687         0.250000000
     0.333333284         0.809523880         0.250000000
     0.333333284         0.952381015         0.250000000
     0.476190418         0.095238142         0.250000000
     0.476190418         0.238095284         0.250000000
     0.476190418         0.380952418         0.250000000
     0.476190418         0.523809552         0.250000000
     0.476190418         0.666666687         0.250000000
     0.476190418         0.809523880         0.250000000
     0.476190418         0.952381015         0.250000000
     0.619047582         0.095238142         0.250000000
     0.619047582         0.238095284         0.250000000
     0.619047582         0.380952418         0.250000000
     0.619047582         0.523809552         0.250000000
     0.619047582         0.666666687         0.250000000
     0.619047582         0.809523880         0.250000000
     0.619047582         0.952381015         0.250000000
     0.761904716         0.095238142         0.250000000
     0.761904716         0.238095284         0.250000000
     0.761904716         0.380952418         0.250000000
     0.761904716         0.523809552         0.250000000
     0.761904716         0.666666687         0.250000000
     0.761904716         0.809523880         0.250000000
     0.761904716         0.952381015         0.250000000
     0.904761851         0.095238142         0.250000000
     0.904761851         0.238095284         0.250000000
     0.904761851         0.380952418         0.250000000
     0.904761851         0.523809552         0.250000000
     0.904761851         0.666666687         0.250000000
     0.904761851         0.809523880         0.250000000
     0.904761851         0.952381015         0.250000000
     0.095238142         0.047618996         0.250000000
     0.095238142         0.190476134         0.250000000
     0.095238142         0.333333284         0.250000000
     0.095238142         0.476190418         0.250000000
     0.095238142         0.619047582         0.250000000
     0.095238142         0.761904716         0.250000000
     0.095238142         0.904761851         0.250000000
     0.238095284         0.047618996         0.250000000
     0.238095284         0.190476134         0.250000000
     0.238095284         0.333333284         0.250000000
     0.238095284         0.476190418         0.250000000
     0.238095284         0.619047582         0.250000000
     0.238095284         0.761904716         0.250000000
     0.238095284         0.904761851         0.250000000
     0.380952418         0.047618996         0.250000000
     0.380952418         0.190476134         0.250000000
     0.380952418         0.333333284         0.250000000
     0.380952418         0.476190418         0.250000000
     0.380952418         0.619047582         0.250000000
     0.380952418         0.761904716         0.250000000
     0.380952418         0.904761851         0.250000000
     0.523809552         0.047618996         0.250000000
     0.523809552         0.190476134         0.250000000
     0.523809552         0.333333284         0.250000000
     0.523809552         0.476190418         0.250000000
     0.523809552         0.619047582         0.250000000
     0.523809552         0.761904716         0.250000000
     0.523809552         0.904761851         0.250000000
     0.666666687         0.047618996         0.250000000
     0.666666687         0.190476134         0.250000000
     0.666666687         0.333333284         0.250000000
     0.666666687         0.476190418         0.250000000
     0.666666687         0.619047582         0.250000000
     0.666666687         0.761904716         0.250000000
     0.666666687         0.904761851         0.250000000
     0.809523880         0.047618996         0.250000000
     0.809523880         0.190476134         0.250000000
     0.809523880         0.333333284         0.250000000
     0.809523880         0.476190418         0.250000000
     0.809523880         0.619047582         0.250000000
     0.809523880         0.761904716         0.250000000
     0.809523880         0.904761851         0.250000000
     0.952381015         0.047618996         0.250000000
     0.952381015         0.190476134         0.250000000
     0.952381015         0.333333284         0.250000000
     0.952381015         0.476190418         0.250000000
     0.952381015         0.619047582         0.250000000
     0.952381015         0.761904716         0.250000000
     0.952381015         0.904761851         0.250000000
     0.047618996         0.095238142         0.750000000
     0.047618996         0.238095284         0.750000000
     0.047618996         0.380952418         0.750000000
     0.047618996         0.523809552         0.750000000
     0.047618996         0.666666687         0.750000000
     0.047618996         0.809523880         0.750000000
     0.047618996         0.952381015         0.750000000
     0.190476134         0.095238142         0.750000000
     0.190476134         0.238095284         0.750000000
     0.190476134         0.380952418         0.750000000
     0.190476134         0.523809552         0.750000000
     0.190476134         0.666666687         0.750000000
     0.190476134         0.809523880         0.750000000
     0.190476134         0.952381015         0.750000000
     0.333333284         0.095238142         0.750000000
     0.333333284         0.238095284         0.750000000
     0.333333284         0.380952418         0.750000000
     0.333333284         0.523809552         0.750000000
     0.333333284         0.666666687         0.750000000
     0.333333284         0.809523880         0.750000000
     0.333333284         0.952381015         0.750000000
     0.476190418         0.095238142         0.750000000
     0.476190418         0.238095284         0.750000000
     0.476190418         0.380952418         0.750000000
     0.476190418         0.523809552         0.750000000
     0.476190418         0.666666687         0.750000000
     0.476190418         0.809523880         0.750000000
     0.476190418         0.952381015         0.750000000
     0.619047582         0.095238142         0.750000000
     0.619047582         0.238095284         0.750000000
     0.619047582         0.380952418         0.750000000
     0.619047582         0.523809552         0.750000000
     0.619047582         0.666666687         0.750000000
     0.619047582         0.809523880         0.750000000
     0.619047582         0.952381015         0.750000000
     0.761904716         0.095238142         0.750000000
     0.761904716         0.238095284         0.750000000
     0.761904716         0.380952418         0.750000000
     0.761904716         0.523809552         0.750000000
     0.761904716         0.666666687         0.750000000
     0.761904716         0.809523880         0.750000000
     0.761904716         0.952381015         0.750000000
     0.904761851         0.095238142         0.750000000
     0.904761851         0.238095284         0.750000000
     0.904761851         0.380952418         0.750000000
     0.904761851         0.523809552         0.750000000
     0.904761851         0.666666687         0.750000000
     0.904761851         0.809523880         0.750000000
     0.904761851         0.952381015         0.750000000
