c1
    1.000000000
   14.783999920    0.000000000    0.000000000
   -7.391999960   12.803319500    0.000000000
    0.000000000    0.000000000   10.710999966
C    
144
Direct
    0.000000000    0.000000000    0.250000000
    0.500000000    0.000000000    0.250000000
    0.000000000    0.500000000    0.250000000
    0.500000000    0.500000000    0.250000000
    0.166666667    0.000000000    0.250000000
    0.666666667    0.000000000    0.250000000
    0.166666667    0.500000000    0.250000000
    0.666666667    0.500000000    0.250000000
    0.333333333    0.000000000    0.250000000
    0.833333333    0.000000000    0.250000000
    0.333333333    0.500000000    0.250000000
    0.833333333    0.500000000    0.250000000
    0.000000000    0.166666667    0.250000000
    0.500000000    0.166666667    0.250000000
    0.000000000    0.666666667    0.250000000
    0.500000000    0.666666667    0.250000000
    0.166666667    0.166666667    0.250000000
    0.666666667    0.166666667    0.250000000
    0.166666667    0.666666667    0.250000000
    0.666666667    0.666666667    0.250000000
    0.333333333    0.166666667    0.250000000
    0.833333333    0.166666667    0.250000000
    0.333333333    0.666666667    0.250000000
    0.833333333    0.666666667    0.250000000
    0.000000000    0.333333333    0.250000000
    0.500000000    0.333333333    0.250000000
    0.000000000    0.833333333    0.250000000
    0.500000000    0.833333333    0.250000000
    0.166666667    0.333333333    0.250000000
    0.666666667    0.333333333    0.250000000
    0.166666667    0.833333333    0.250000000
    0.666666667    0.833333333    0.250000000
    0.333333333    0.333333333    0.250000000
    0.833333333    0.333333333    0.250000000
    0.333333333    0.833333333    0.250000000
    0.833333333    0.833333333    0.250000000
    0.000000000    0.000000000    0.749999982
    0.500000000    0.000000000    0.749999982
    0.000000000    0.500000000    0.749999982
    0.500000000    0.500000000    0.749999982
    0.166666667    0.000000000    0.749999982
    0.666666667    0.000000000    0.749999982
    0.166666667    0.500000000    0.749999982
    0.666666667    0.500000000    0.749999982
    0.333333333    0.000000000    0.749999982
    0.833333333    0.000000000    0.749999982
    0.333333333    0.500000000    0.749999982
    0.833333333    0.500000000    0.749999982
    0.000000000    0.166666667    0.749999982
    0.500000000    0.166666667    0.749999982
    0.000000000    0.666666667    0.749999982
    0.500000000    0.666666667    0.749999982
    0.166666667    0.166666667    0.749999982
    0.666666667    0.166666667    0.749999982
    0.166666667    0.666666667    0.749999982
    0.666666667    0.666666667    0.749999982
    0.333333333    0.166666667    0.749999982
    0.833333333    0.166666667    0.749999982
    0.333333333    0.666666667    0.749999982
    0.833333333    0.666666667    0.749999982
    0.000000000    0.333333333    0.749999982
    0.500000000    0.333333333    0.749999982
    0.000000000    0.833333333    0.749999982
    0.500000000    0.833333333    0.749999982
    0.166666667    0.333333333    0.749999982
    0.666666667    0.333333333    0.749999982
    0.166666667    0.833333333    0.749999982
    0.666666667    0.833333333    0.749999982
    0.333333333    0.333333333    0.749999982
    0.833333333    0.333333333    0.749999982
    0.333333333    0.833333333    0.749999982
    0.833333333    0.833333333    0.749999982
    0.055555556    0.111111114    0.250000000
    0.555555556    0.111111114    0.250000000
    0.055555556    0.611111114    0.250000000
    0.555555556    0.611111114    0.250000000
    0.222222224    0.111111114    0.250000000
    0.722222223    0.111111114    0.250000000
    0.222222224    0.611111114    0.250000000
    0.722222223    0.611111114    0.250000000
    0.388888890    0.111111114    0.250000000
    0.888888890    0.111111114    0.250000000
    0.388888890    0.611111114    0.250000000
    0.888888890    0.611111114    0.250000000
    0.055555556    0.277777781    0.250000000
    0.555555556    0.277777781    0.250000000
    0.055555556    0.777777781    0.250000000
    0.555555556    0.777777781    0.250000000
    0.222222224    0.277777781    0.250000000
    0.722222223    0.277777781    0.250000000
    0.222222224    0.777777781    0.250000000
    0.722222223    0.777777781    0.250000000
    0.388888890    0.277777781    0.250000000
    0.888888890    0.277777781    0.250000000
    0.388888890    0.777777781    0.250000000
    0.888888890    0.777777781    0.250000000
    0.055555556    0.444444447    0.250000000
    0.555555556    0.444444447    0.250000000
    0.055555556    0.944444447    0.250000000
    0.555555556    0.944444447    0.250000000
    0.222222224    0.444444447    0.250000000
    0.722222223    0.444444447    0.250000000
    0.222222224    0.944444447    0.250000000
    0.722222223    0.944444447    0.250000000
    0.388888890    0.444444447    0.250000000
    0.888888890    0.444444447    0.250000000
    0.388888890    0.944444447    0.250000000
    0.888888890    0.944444447    0.250000000
    0.111111109    0.055555553    0.749999982
    0.611111110    0.055555553    0.749999982
    0.111111109    0.555555552    0.749999982
    0.611111110    0.555555552    0.749999982
    0.277777776    0.055555553    0.749999982
    0.777777776    0.055555553    0.749999982
    0.277777776    0.555555552    0.749999982
    0.777777776    0.555555552    0.749999982
    0.444444443    0.055555553    0.749999982
    0.944444443    0.055555553    0.749999982
    0.444444443    0.555555552    0.749999982
    0.944444443    0.555555552    0.749999982
    0.111111109    0.222222219    0.749999982
    0.611111110    0.222222219    0.749999982
    0.111111109    0.722222219    0.749999982
    0.611111110    0.722222219    0.749999982
    0.277777776    0.222222219    0.749999982
    0.777777776    0.222222219    0.749999982
    0.277777776    0.722222219    0.749999982
    0.777777776    0.722222219    0.749999982
    0.444444443    0.222222219    0.749999982
    0.944444443    0.222222219    0.749999982
    0.444444443    0.722222219    0.749999982
    0.944444443    0.722222219    0.749999982
    0.111111109    0.388888886    0.749999982
    0.611111110    0.388888886    0.749999982
    0.111111109    0.888888886    0.749999982
    0.611111110    0.888888886    0.749999982
    0.277777776    0.388888886    0.749999982
    0.777777776    0.388888886    0.749999982
    0.277777776    0.888888886    0.749999982
    0.777777776    0.888888886    0.749999982
    0.444444443    0.388888886    0.749999982
    0.944444443    0.388888886    0.749999982
    0.444444443    0.888888886    0.749999982
    0.944444443    0.888888886    0.749999982
