c1+mg1 o1
    1.000000000
    4.267773167    0.000000000    0.000000000
   -0.000000000   12.319999933    0.000000000
    0.000000000    0.000000000   14.398580001
C       
40     
Direct
    0.000000000    0.000000000    0.000000000
    0.000000000    0.200000000    0.000000000
    0.000000000    0.400000000    0.000000000
    0.000000000    0.600000000    0.000000000
    0.000000000    0.800000000    0.000000000
    0.500000000    0.100000000    0.000000000
    0.500000000    0.300000000    0.000000000
    0.500000000    0.500000000    0.000000000
    0.500000000    0.700000000    0.000000000
    0.500000000    0.900000000    0.000000000
    0.000000000    0.000000000    0.766956196
    0.000000000    0.200000000    0.766956196
    0.000000000    0.400000000    0.766956196
    0.000000000    0.600000000    0.766956196
    0.000000000    0.800000000    0.766956196
    0.500000000    0.100000000    0.766956196
    0.500000000    0.300000000    0.766956196
    0.500000000    0.500000000    0.766956196
    0.500000000    0.700000000    0.766956196
    0.500000000    0.900000000    0.766956196
    0.333333342    1.000000000    0.000000000
    0.333333342    0.200000000    0.000000000
    0.333333342    0.400000000    0.000000000
    0.333333342    0.600000000    0.000000000
    0.333333342    0.800000000    0.000000000
    0.833333342    0.100000000    0.000000000
    0.833333342    0.300000000    0.000000000
    0.833333342    0.500000000    0.000000000
    0.833333342    0.700000000    0.000000000
    0.833333342    0.900000000    0.000000000
    0.166666657    0.100000000    0.766956196
    0.166666657    0.300000000    0.766956196
    0.166666657    0.500000000    0.766956196
    0.166666657    0.700000000    0.766956196
    0.166666657    0.900000000    0.766956196
    0.666666657    0.000000000    0.766956196
    0.666666657    0.200000000    0.766956196
    0.666666657    0.400000000    0.766956196
    0.666666657    0.600000000    0.766956196
    0.666666657    0.800000000    0.766956196