c1
    1.000000000
    7.391999960    0.000000000    0.000000000
   -3.695999980    6.401659750    0.000000000
    0.000000000    0.000000000   14.710999966
C    
36
Direct
    0.000000000    0.000000000    0.000000000
    0.333333333    0.000000000    0.000000000
    0.666666667    0.000000000    0.000000000
    0.000000000    0.333333333    0.000000000
    0.333333333    0.333333333    0.000000000
    0.666666667    0.333333333    0.000000000
    0.000000000    0.666666667    0.000000000
    0.333333333    0.666666667    0.000000000
    0.666666667    0.666666667    0.000000000
    0.000000000    0.000000000    0.749999982
    0.333333333    0.000000000    0.749999982
    0.666666667    0.000000000    0.749999982
    0.000000000    0.333333333    0.749999982
    0.333333333    0.333333333    0.749999982
    0.666666667    0.333333333    0.749999982
    0.000000000    0.666666667    0.749999982
    0.333333333    0.666666667    0.749999982
    0.666666667    0.666666667    0.749999982
    0.111111113    0.222222228    0.000000000
    0.444444447    0.222222228    0.000000000
    0.777777780    0.222222228    0.000000000
    0.111111113    0.555555561    0.000000000
    0.444444447    0.555555561    0.000000000
    0.777777780    0.555555561    0.000000000
    0.111111113    0.888888894    0.000000000
    0.444444447    0.888888894    0.000000000
    0.777777780    0.888888894    0.000000000
    0.222222219    0.111111105    0.749999982
    0.555555552    0.111111105    0.749999982
    0.888888886    0.111111105    0.749999982
    0.222222219    0.444444438    0.749999982
    0.555555552    0.444444438    0.749999982
    0.888888886    0.444444438    0.749999982
    0.222222219    0.777777771    0.749999982
    0.555555552    0.777777771    0.749999982
    0.888888886    0.777777771    0.749999982
