c1                                      
   1.00000000000000     
     2.4639999866000002    0.0000000000000000    0.0000000000000000
    -1.2319999933000001    2.1338865833999998    0.0000000000000000
     0.0000000000000000    0.0000000000000000   10.7109999657000001
   C 
     4
Direct
  0.0000000000000000  0.0000000000000000  0.2500000000000000
  0.0000000000000000  0.0000000000000000  0.7499999819999985
  0.3333333400000029  0.6666666830000025  0.2500000000000000
  0.6666666570000004  0.3333333140000008  0.7499999819999985
 
  0.00000000E+00  0.00000000E+00  0.00000000E+00
  0.00000000E+00  0.00000000E+00  0.00000000E+00
  0.00000000E+00  0.00000000E+00  0.00000000E+00
  0.00000000E+00  0.00000000E+00  0.00000000E+00
