c1
    1.000000000
   12.319999933    0.000000000    0.000000000
   -6.159999967   10.669432917    0.000000000
    0.000000000    0.000000000   12.029835
C    
100
Direct
    0.000000000    0.000000000    0.250000000
    0.200000000    0.000000000    0.250000000
    0.400000000    0.000000000    0.250000000
    0.600000000    0.000000000    0.250000000
    0.800000000    0.000000000    0.250000000
    0.000000000    0.200000000    0.250000000
    0.200000000    0.200000000    0.250000000
    0.400000000    0.200000000    0.250000000
    0.600000000    0.200000000    0.250000000
    0.800000000    0.200000000    0.250000000
    0.000000000    0.400000000    0.250000000
    0.200000000    0.400000000    0.250000000
    0.400000000    0.400000000    0.250000000
    0.600000000    0.400000000    0.250000000
    0.800000000    0.400000000    0.250000000
    0.000000000    0.600000000    0.250000000
    0.200000000    0.600000000    0.250000000
    0.400000000    0.600000000    0.250000000
    0.600000000    0.600000000    0.250000000
    0.800000000    0.600000000    0.250000000
    0.000000000    0.800000000    0.250000000
    0.200000000    0.800000000    0.250000000
    0.400000000    0.800000000    0.250000000
    0.600000000    0.800000000    0.250000000
    0.800000000    0.800000000    0.250000000
    0.000000000    0.000000000    0.749999982
    0.200000000    0.000000000    0.749999982
    0.400000000    0.000000000    0.749999982
    0.600000000    0.000000000    0.749999982
    0.800000000    0.000000000    0.749999982
    0.000000000    0.200000000    0.749999982
    0.200000000    0.200000000    0.749999982
    0.400000000    0.200000000    0.749999982
    0.600000000    0.200000000    0.749999982
    0.800000000    0.200000000    0.749999982
    0.000000000    0.400000000    0.749999982
    0.200000000    0.400000000    0.749999982
    0.400000000    0.400000000    0.749999982
    0.600000000    0.400000000    0.749999982
    0.800000000    0.400000000    0.749999982
    0.000000000    0.600000000    0.749999982
    0.200000000    0.600000000    0.749999982
    0.400000000    0.600000000    0.749999982
    0.600000000    0.600000000    0.749999982
    0.800000000    0.600000000    0.749999982
    0.000000000    0.800000000    0.749999982
    0.200000000    0.800000000    0.749999982
    0.400000000    0.800000000    0.749999982
    0.600000000    0.800000000    0.749999982
    0.800000000    0.800000000    0.749999982
    0.066666668    0.133333337    0.250000000
    0.266666668    0.133333337    0.250000000
    0.466666668    0.133333337    0.250000000
    0.666666668    0.133333337    0.250000000
    0.866666668    0.133333337    0.250000000
    0.066666668    0.333333337    0.250000000
    0.266666668    0.333333337    0.250000000
    0.466666668    0.333333337    0.250000000
    0.666666668    0.333333337    0.250000000
    0.866666668    0.333333337    0.250000000
    0.066666668    0.533333337    0.250000000
    0.266666668    0.533333337    0.250000000
    0.466666668    0.533333337    0.250000000
    0.666666668    0.533333337    0.250000000
    0.866666668    0.533333337    0.250000000
    0.066666668    0.733333337    0.250000000
    0.266666668    0.733333337    0.250000000
    0.466666668    0.733333337    0.250000000
    0.666666668    0.733333337    0.250000000
    0.866666668    0.733333337    0.250000000
    0.066666668    0.933333337    0.250000000
    0.266666668    0.933333337    0.250000000
    0.466666668    0.933333337    0.250000000
    0.666666668    0.933333337    0.250000000
    0.866666668    0.933333337    0.250000000
    0.133333331    0.066666663    0.749999982
    0.333333331    0.066666663    0.749999982
    0.533333331    0.066666663    0.749999982
    0.733333331    0.066666663    0.749999982
    0.933333331    0.066666663    0.749999982
    0.133333331    0.266666663    0.749999982
    0.333333331    0.266666663    0.749999982
    0.533333331    0.266666663    0.749999982
    0.733333331    0.266666663    0.749999982
    0.933333331    0.266666663    0.749999982
    0.133333331    0.466666663    0.749999982
    0.333333331    0.466666663    0.749999982
    0.533333331    0.466666663    0.749999982
    0.733333331    0.466666663    0.749999982
    0.933333331    0.466666663    0.749999982
    0.133333331    0.666666663    0.749999982
    0.333333331    0.666666663    0.749999982
    0.533333331    0.666666663    0.749999982
    0.733333331    0.666666663    0.749999982
    0.933333331    0.666666663    0.749999982
    0.133333331    0.866666663    0.749999982
    0.333333331    0.866666663    0.749999982
    0.533333331    0.866666663    0.749999982
    0.733333331    0.866666663    0.749999982
    0.933333331    0.866666663    0.749999982
