c1
    1.000000000
   24.639999866    0.000000000    0.000000000
  -12.319999933   21.338865834    0.000000000
    0.000000000    0.000000000   10.710999966
C    
400
Direct
    0.000000000    0.000000000    0.250000000
    0.100000000    0.000000000    0.250000000
    0.200000000    0.000000000    0.250000000
    0.300000000    0.000000000    0.250000000
    0.400000000    0.000000000    0.250000000
    0.500000000    0.000000000    0.250000000
    0.600000000    0.000000000    0.250000000
    0.700000000    0.000000000    0.250000000
    0.800000000    0.000000000    0.250000000
    0.900000000    0.000000000    0.250000000
    0.000000000    0.100000000    0.250000000
    0.100000000    0.100000000    0.250000000
    0.200000000    0.100000000    0.250000000
    0.300000000    0.100000000    0.250000000
    0.400000000    0.100000000    0.250000000
    0.500000000    0.100000000    0.250000000
    0.600000000    0.100000000    0.250000000
    0.700000000    0.100000000    0.250000000
    0.800000000    0.100000000    0.250000000
    0.900000000    0.100000000    0.250000000
    0.000000000    0.200000000    0.250000000
    0.100000000    0.200000000    0.250000000
    0.200000000    0.200000000    0.250000000
    0.300000000    0.200000000    0.250000000
    0.400000000    0.200000000    0.250000000
    0.500000000    0.200000000    0.250000000
    0.600000000    0.200000000    0.250000000
    0.700000000    0.200000000    0.250000000
    0.800000000    0.200000000    0.250000000
    0.900000000    0.200000000    0.250000000
    0.000000000    0.300000000    0.250000000
    0.100000000    0.300000000    0.250000000
    0.200000000    0.300000000    0.250000000
    0.300000000    0.300000000    0.250000000
    0.400000000    0.300000000    0.250000000
    0.500000000    0.300000000    0.250000000
    0.600000000    0.300000000    0.250000000
    0.700000000    0.300000000    0.250000000
    0.800000000    0.300000000    0.250000000
    0.900000000    0.300000000    0.250000000
    0.000000000    0.400000000    0.250000000
    0.100000000    0.400000000    0.250000000
    0.200000000    0.400000000    0.250000000
    0.300000000    0.400000000    0.250000000
    0.400000000    0.400000000    0.250000000
    0.500000000    0.400000000    0.250000000
    0.600000000    0.400000000    0.250000000
    0.700000000    0.400000000    0.250000000
    0.800000000    0.400000000    0.250000000
    0.900000000    0.400000000    0.250000000
    0.000000000    0.500000000    0.250000000
    0.100000000    0.500000000    0.250000000
    0.200000000    0.500000000    0.250000000
    0.300000000    0.500000000    0.250000000
    0.400000000    0.500000000    0.250000000
    0.500000000    0.500000000    0.250000000
    0.600000000    0.500000000    0.250000000
    0.700000000    0.500000000    0.250000000
    0.800000000    0.500000000    0.250000000
    0.900000000    0.500000000    0.250000000
    0.000000000    0.600000000    0.250000000
    0.100000000    0.600000000    0.250000000
    0.200000000    0.600000000    0.250000000
    0.300000000    0.600000000    0.250000000
    0.400000000    0.600000000    0.250000000
    0.500000000    0.600000000    0.250000000
    0.600000000    0.600000000    0.250000000
    0.700000000    0.600000000    0.250000000
    0.800000000    0.600000000    0.250000000
    0.900000000    0.600000000    0.250000000
    0.000000000    0.700000000    0.250000000
    0.100000000    0.700000000    0.250000000
    0.200000000    0.700000000    0.250000000
    0.300000000    0.700000000    0.250000000
    0.400000000    0.700000000    0.250000000
    0.500000000    0.700000000    0.250000000
    0.600000000    0.700000000    0.250000000
    0.700000000    0.700000000    0.250000000
    0.800000000    0.700000000    0.250000000
    0.900000000    0.700000000    0.250000000
    0.000000000    0.800000000    0.250000000
    0.100000000    0.800000000    0.250000000
    0.200000000    0.800000000    0.250000000
    0.300000000    0.800000000    0.250000000
    0.400000000    0.800000000    0.250000000
    0.500000000    0.800000000    0.250000000
    0.600000000    0.800000000    0.250000000
    0.700000000    0.800000000    0.250000000
    0.800000000    0.800000000    0.250000000
    0.900000000    0.800000000    0.250000000
    0.000000000    0.900000000    0.250000000
    0.100000000    0.900000000    0.250000000
    0.200000000    0.900000000    0.250000000
    0.300000000    0.900000000    0.250000000
    0.400000000    0.900000000    0.250000000
    0.500000000    0.900000000    0.250000000
    0.600000000    0.900000000    0.250000000
    0.700000000    0.900000000    0.250000000
    0.800000000    0.900000000    0.250000000
    0.900000000    0.900000000    0.250000000
    0.000000000    0.000000000    0.749999982
    0.100000000    0.000000000    0.749999982
    0.200000000    0.000000000    0.749999982
    0.300000000    0.000000000    0.749999982
    0.400000000    0.000000000    0.749999982
    0.500000000    0.000000000    0.749999982
    0.600000000    0.000000000    0.749999982
    0.700000000    0.000000000    0.749999982
    0.800000000    0.000000000    0.749999982
    0.900000000    0.000000000    0.749999982
    0.000000000    0.100000000    0.749999982
    0.100000000    0.100000000    0.749999982
    0.200000000    0.100000000    0.749999982
    0.300000000    0.100000000    0.749999982
    0.400000000    0.100000000    0.749999982
    0.500000000    0.100000000    0.749999982
    0.600000000    0.100000000    0.749999982
    0.700000000    0.100000000    0.749999982
    0.800000000    0.100000000    0.749999982
    0.900000000    0.100000000    0.749999982
    0.000000000    0.200000000    0.749999982
    0.100000000    0.200000000    0.749999982
    0.200000000    0.200000000    0.749999982
    0.300000000    0.200000000    0.749999982
    0.400000000    0.200000000    0.749999982
    0.500000000    0.200000000    0.749999982
    0.600000000    0.200000000    0.749999982
    0.700000000    0.200000000    0.749999982
    0.800000000    0.200000000    0.749999982
    0.900000000    0.200000000    0.749999982
    0.000000000    0.300000000    0.749999982
    0.100000000    0.300000000    0.749999982
    0.200000000    0.300000000    0.749999982
    0.300000000    0.300000000    0.749999982
    0.400000000    0.300000000    0.749999982
    0.500000000    0.300000000    0.749999982
    0.600000000    0.300000000    0.749999982
    0.700000000    0.300000000    0.749999982
    0.800000000    0.300000000    0.749999982
    0.900000000    0.300000000    0.749999982
    0.000000000    0.400000000    0.749999982
    0.100000000    0.400000000    0.749999982
    0.200000000    0.400000000    0.749999982
    0.300000000    0.400000000    0.749999982
    0.400000000    0.400000000    0.749999982
    0.500000000    0.400000000    0.749999982
    0.600000000    0.400000000    0.749999982
    0.700000000    0.400000000    0.749999982
    0.800000000    0.400000000    0.749999982
    0.900000000    0.400000000    0.749999982
    0.000000000    0.500000000    0.749999982
    0.100000000    0.500000000    0.749999982
    0.200000000    0.500000000    0.749999982
    0.300000000    0.500000000    0.749999982
    0.400000000    0.500000000    0.749999982
    0.500000000    0.500000000    0.749999982
    0.600000000    0.500000000    0.749999982
    0.700000000    0.500000000    0.749999982
    0.800000000    0.500000000    0.749999982
    0.900000000    0.500000000    0.749999982
    0.000000000    0.600000000    0.749999982
    0.100000000    0.600000000    0.749999982
    0.200000000    0.600000000    0.749999982
    0.300000000    0.600000000    0.749999982
    0.400000000    0.600000000    0.749999982
    0.500000000    0.600000000    0.749999982
    0.600000000    0.600000000    0.749999982
    0.700000000    0.600000000    0.749999982
    0.800000000    0.600000000    0.749999982
    0.900000000    0.600000000    0.749999982
    0.000000000    0.700000000    0.749999982
    0.100000000    0.700000000    0.749999982
    0.200000000    0.700000000    0.749999982
    0.300000000    0.700000000    0.749999982
    0.400000000    0.700000000    0.749999982
    0.500000000    0.700000000    0.749999982
    0.600000000    0.700000000    0.749999982
    0.700000000    0.700000000    0.749999982
    0.800000000    0.700000000    0.749999982
    0.900000000    0.700000000    0.749999982
    0.000000000    0.800000000    0.749999982
    0.100000000    0.800000000    0.749999982
    0.200000000    0.800000000    0.749999982
    0.300000000    0.800000000    0.749999982
    0.400000000    0.800000000    0.749999982
    0.500000000    0.800000000    0.749999982
    0.600000000    0.800000000    0.749999982
    0.700000000    0.800000000    0.749999982
    0.800000000    0.800000000    0.749999982
    0.900000000    0.800000000    0.749999982
    0.000000000    0.900000000    0.749999982
    0.100000000    0.900000000    0.749999982
    0.200000000    0.900000000    0.749999982
    0.300000000    0.900000000    0.749999982
    0.400000000    0.900000000    0.749999982
    0.500000000    0.900000000    0.749999982
    0.600000000    0.900000000    0.749999982
    0.700000000    0.900000000    0.749999982
    0.800000000    0.900000000    0.749999982
    0.900000000    0.900000000    0.749999982
    0.033333334    0.066666668    0.250000000
    0.133333334    0.066666668    0.250000000
    0.233333334    0.066666668    0.250000000
    0.333333334    0.066666668    0.250000000
    0.433333334    0.066666668    0.250000000
    0.533333334    0.066666668    0.250000000
    0.633333334    0.066666668    0.250000000
    0.733333334    0.066666668    0.250000000
    0.833333334    0.066666668    0.250000000
    0.933333334    0.066666668    0.250000000
    0.033333334    0.166666668    0.250000000
    0.133333334    0.166666668    0.250000000
    0.233333334    0.166666668    0.250000000
    0.333333334    0.166666668    0.250000000
    0.433333334    0.166666668    0.250000000
    0.533333334    0.166666668    0.250000000
    0.633333334    0.166666668    0.250000000
    0.733333334    0.166666668    0.250000000
    0.833333334    0.166666668    0.250000000
    0.933333334    0.166666668    0.250000000
    0.033333334    0.266666668    0.250000000
    0.133333334    0.266666668    0.250000000
    0.233333334    0.266666668    0.250000000
    0.333333334    0.266666668    0.250000000
    0.433333334    0.266666668    0.250000000
    0.533333334    0.266666668    0.250000000
    0.633333334    0.266666668    0.250000000
    0.733333334    0.266666668    0.250000000
    0.833333334    0.266666668    0.250000000
    0.933333334    0.266666668    0.250000000
    0.033333334    0.366666668    0.250000000
    0.133333334    0.366666668    0.250000000
    0.233333334    0.366666668    0.250000000
    0.333333334    0.366666668    0.250000000
    0.433333334    0.366666668    0.250000000
    0.533333334    0.366666668    0.250000000
    0.633333334    0.366666668    0.250000000
    0.733333334    0.366666668    0.250000000
    0.833333334    0.366666668    0.250000000
    0.933333334    0.366666668    0.250000000
    0.033333334    0.466666668    0.250000000
    0.133333334    0.466666668    0.250000000
    0.233333334    0.466666668    0.250000000
    0.333333334    0.466666668    0.250000000
    0.433333334    0.466666668    0.250000000
    0.533333334    0.466666668    0.250000000
    0.633333334    0.466666668    0.250000000
    0.733333334    0.466666668    0.250000000
    0.833333334    0.466666668    0.250000000
    0.933333334    0.466666668    0.250000000
    0.033333334    0.566666668    0.250000000
    0.133333334    0.566666668    0.250000000
    0.233333334    0.566666668    0.250000000
    0.333333334    0.566666668    0.250000000
    0.433333334    0.566666668    0.250000000
    0.533333334    0.566666668    0.250000000
    0.633333334    0.566666668    0.250000000
    0.733333334    0.566666668    0.250000000
    0.833333334    0.566666668    0.250000000
    0.933333334    0.566666668    0.250000000
    0.033333334    0.666666668    0.250000000
    0.133333334    0.666666668    0.250000000
    0.233333334    0.666666668    0.250000000
    0.333333334    0.666666668    0.250000000
    0.433333334    0.666666668    0.250000000
    0.533333334    0.666666668    0.250000000
    0.633333334    0.666666668    0.250000000
    0.733333334    0.666666668    0.250000000
    0.833333334    0.666666668    0.250000000
    0.933333334    0.666666668    0.250000000
    0.033333334    0.766666668    0.250000000
    0.133333334    0.766666668    0.250000000
    0.233333334    0.766666668    0.250000000
    0.333333334    0.766666668    0.250000000
    0.433333334    0.766666668    0.250000000
    0.533333334    0.766666668    0.250000000
    0.633333334    0.766666668    0.250000000
    0.733333334    0.766666668    0.250000000
    0.833333334    0.766666668    0.250000000
    0.933333334    0.766666668    0.250000000
    0.033333334    0.866666668    0.250000000
    0.133333334    0.866666668    0.250000000
    0.233333334    0.866666668    0.250000000
    0.333333334    0.866666668    0.250000000
    0.433333334    0.866666668    0.250000000
    0.533333334    0.866666668    0.250000000
    0.633333334    0.866666668    0.250000000
    0.733333334    0.866666668    0.250000000
    0.833333334    0.866666668    0.250000000
    0.933333334    0.866666668    0.250000000
    0.033333334    0.966666668    0.250000000
    0.133333334    0.966666668    0.250000000
    0.233333334    0.966666668    0.250000000
    0.333333334    0.966666668    0.250000000
    0.433333334    0.966666668    0.250000000
    0.533333334    0.966666668    0.250000000
    0.633333334    0.966666668    0.250000000
    0.733333334    0.966666668    0.250000000
    0.833333334    0.966666668    0.250000000
    0.933333334    0.966666668    0.250000000
    0.066666666    0.033333331    0.749999982
    0.166666666    0.033333331    0.749999982
    0.266666666    0.033333331    0.749999982
    0.366666666    0.033333331    0.749999982
    0.466666666    0.033333331    0.749999982
    0.566666666    0.033333331    0.749999982
    0.666666666    0.033333331    0.749999982
    0.766666666    0.033333331    0.749999982
    0.866666666    0.033333331    0.749999982
    0.966666666    0.033333331    0.749999982
    0.066666666    0.133333331    0.749999982
    0.166666666    0.133333331    0.749999982
    0.266666666    0.133333331    0.749999982
    0.366666666    0.133333331    0.749999982
    0.466666666    0.133333331    0.749999982
    0.566666666    0.133333331    0.749999982
    0.666666666    0.133333331    0.749999982
    0.766666666    0.133333331    0.749999982
    0.866666666    0.133333331    0.749999982
    0.966666666    0.133333331    0.749999982
    0.066666666    0.233333331    0.749999982
    0.166666666    0.233333331    0.749999982
    0.266666666    0.233333331    0.749999982
    0.366666666    0.233333331    0.749999982
    0.466666666    0.233333331    0.749999982
    0.566666666    0.233333331    0.749999982
    0.666666666    0.233333331    0.749999982
    0.766666666    0.233333331    0.749999982
    0.866666666    0.233333331    0.749999982
    0.966666666    0.233333331    0.749999982
    0.066666666    0.333333331    0.749999982
    0.166666666    0.333333331    0.749999982
    0.266666666    0.333333331    0.749999982
    0.366666666    0.333333331    0.749999982
    0.466666666    0.333333331    0.749999982
    0.566666666    0.333333331    0.749999982
    0.666666666    0.333333331    0.749999982
    0.766666666    0.333333331    0.749999982
    0.866666666    0.333333331    0.749999982
    0.966666666    0.333333331    0.749999982
    0.066666666    0.433333331    0.749999982
    0.166666666    0.433333331    0.749999982
    0.266666666    0.433333331    0.749999982
    0.366666666    0.433333331    0.749999982
    0.466666666    0.433333331    0.749999982
    0.566666666    0.433333331    0.749999982
    0.666666666    0.433333331    0.749999982
    0.766666666    0.433333331    0.749999982
    0.866666666    0.433333331    0.749999982
    0.966666666    0.433333331    0.749999982
    0.066666666    0.533333331    0.749999982
    0.166666666    0.533333331    0.749999982
    0.266666666    0.533333331    0.749999982
    0.366666666    0.533333331    0.749999982
    0.466666666    0.533333331    0.749999982
    0.566666666    0.533333331    0.749999982
    0.666666666    0.533333331    0.749999982
    0.766666666    0.533333331    0.749999982
    0.866666666    0.533333331    0.749999982
    0.966666666    0.533333331    0.749999982
    0.066666666    0.633333331    0.749999982
    0.166666666    0.633333331    0.749999982
    0.266666666    0.633333331    0.749999982
    0.366666666    0.633333331    0.749999982
    0.466666666    0.633333331    0.749999982
    0.566666666    0.633333331    0.749999982
    0.666666666    0.633333331    0.749999982
    0.766666666    0.633333331    0.749999982
    0.866666666    0.633333331    0.749999982
    0.966666666    0.633333331    0.749999982
    0.066666666    0.733333331    0.749999982
    0.166666666    0.733333331    0.749999982
    0.266666666    0.733333331    0.749999982
    0.366666666    0.733333331    0.749999982
    0.466666666    0.733333331    0.749999982
    0.566666666    0.733333331    0.749999982
    0.666666666    0.733333331    0.749999982
    0.766666666    0.733333331    0.749999982
    0.866666666    0.733333331    0.749999982
    0.966666666    0.733333331    0.749999982
    0.066666666    0.833333331    0.749999982
    0.166666666    0.833333331    0.749999982
    0.266666666    0.833333331    0.749999982
    0.366666666    0.833333331    0.749999982
    0.466666666    0.833333331    0.749999982
    0.566666666    0.833333331    0.749999982
    0.666666666    0.833333331    0.749999982
    0.766666666    0.833333331    0.749999982
    0.866666666    0.833333331    0.749999982
    0.966666666    0.833333331    0.749999982
    0.066666666    0.933333331    0.749999982
    0.166666666    0.933333331    0.749999982
    0.266666666    0.933333331    0.749999982
    0.366666666    0.933333331    0.749999982
    0.466666666    0.933333331    0.749999982
    0.566666666    0.933333331    0.749999982
    0.666666666    0.933333331    0.749999982
    0.766666666    0.933333331    0.749999982
    0.866666666    0.933333331    0.749999982
    0.966666666    0.933333331    0.749999982
