8
Lattice="3.567 0.0 0.0 0.0 3.567 0.0 0.0 0.0 3.567" Properties=species:S:1:pos:R:3 pbc="T T T"
C        0.50000000       0.00000000       0.00000000
C        0.89175000       0.89175000       0.89175000
C        0.00000000       1.78350000       1.78350000
C        0.89175000       2.67525000       2.67525000
C        1.95629200       0.24108090       1.94871899
C        2.66873421       0.89627678       2.87748187
C        1.68081523       1.88640559       0.20182286
C        4.67672057       2.67539211       0.99448356
