C4
    1.000000000
    3.700936892   -6.410210733    0.000000000
    3.700936892    6.410210733    0.000000000
    0.000000000    0.000000000    7.803073000
C    
35
Direct
    0.000000000    0.000000000    0.250000000
    0.333333333    0.000000000    0.250000000
    0.666666667    0.000000000    0.250000000
    0.000000000    0.333333333    0.250000000
    0.333333333    0.333333333    0.250000000
    0.666666667    0.333333333    0.250000000
    0.000000000    0.666666667    0.250000000
    0.333333333    0.666666667    0.250000000
    0.666666667    0.666666667    0.250000000
    0.000000000    0.000000000    0.750000000
    0.333333333    0.000000000    0.750000000
    0.666666667    0.000000000    0.750000000
    0.000000000    0.333333333    0.750000000
    0.333333333    0.333333333    0.750000000
    0.666666667    0.333333333    0.750000000
    0.000000000    0.666666667    0.750000000
    0.333333333    0.666666667    0.750000000
    0.666666667    0.666666667    0.750000000
    0.111111111    0.222222222    0.250000000
    0.444444444    0.222222222    0.250000000
    0.777777778    0.222222222    0.250000000
    0.111111111    0.555555556    0.250000000
    0.444444444    0.555555556    0.250000000
    0.777777778    0.555555556    0.250000000
    0.111111111    0.888888889    0.250000000
    0.444444444    0.888888889    0.250000000
    0.777777778    0.888888889    0.250000000
    0.222222222    0.111111111    0.750000000
    0.555555556    0.111111111    0.750000000
    0.888888889    0.111111111    0.750000000
    0.222222222    0.444444444    0.750000000
    0.555555556    0.444444444    0.750000000
    0.888888889    0.444444444    0.750000000
    0.222222222    0.777777778    0.750000000
    0.555555556    0.777777778    0.750000000

