BaTiO3
1.0
4.01 0.00 0.00
0.00 4.01 0.00
0.00 0.00 8.02
Ba Ti O
1 1 3
Direct
0.0 0.0 0.0
0.5 0.5 0.25
0.5 0.5 0.0
0.5 0.0 0.25
0.0 0.5 0.25