BTO
1.0
        4.0008373260         0.0000000000         0.0000000000
        0.0000000000         4.0008373260         0.0000000000
        0.0000000000         0.0000000000        64.0403900146
   Ba  Sr  Ti    O
   4   4   8   24
Direct
     0.000000000         0.000000000         0.000000000
     0.000000000         0.000000000         0.062500000
     0.000000000         0.000000000         0.125000000
     0.000000000         0.000000000         0.187500000
     0.000000000         0.000000000         0.500000000
     0.000000000         0.000000000         0.562500000
     0.000000000         0.000000000         0.625000000
     0.000000000         0.000000000         0.687500000
     0.500000000         0.500000000         0.031250000
     0.500000000         0.500000000         0.093750000
     0.500000000         0.500000000         0.156250000
     0.500000000         0.500000000         0.218750000
     0.500000000         0.500000000         0.531250000
     0.500000000         0.500000000         0.593750000
     0.500000000         0.500000000         0.656250000
     0.500000000         0.500000000         0.718750000
     0.500000000         0.000000000         0.031250000
     0.500000000         0.000000000         0.093750000
     0.500000000         0.000000000         0.156250000
     0.500000000         0.000000000         0.218750000
     0.500000000         0.000000000         0.531250000
     0.500000000         0.000000000         0.593750000
     0.500000000         0.000000000         0.656250000
     0.500000000         0.000000000         0.718750000
     0.000000000         0.500000000         0.031250000
     0.000000000         0.500000000         0.093750000
     0.000000000         0.500000000         0.156250000
     0.000000000         0.500000000         0.218750000
     0.000000000         0.500000000         0.531250000
     0.000000000         0.500000000         0.593750000
     0.000000000         0.500000000         0.656250000
     0.000000000         0.500000000         0.718750000
     0.500000000         0.500000000         0.000000000
     0.500000000         0.500000000         0.062500000
     0.500000000         0.500000000         0.125000000
     0.500000000         0.500000000         0.187500000
     0.500000000         0.500000000         0.500000000
     0.500000000         0.500000000         0.562500000
     0.500000000         0.500000000         0.625000000
     0.500000000         0.500000000         0.687500000

