C8
    1.000000000
    3.570918157    0.000000000    0.000000000
    0.000000000    3.570918157    0.000000000
    0.000000000    0.000000000    7.141836315
C
10
Direct
    0.000000000    0.500000000    0.250000000
    0.250000000    0.750000000    0.375000000
    0.000000000    0.000000000    0.000000000
    0.000000000    0.000000000    0.500000000
    0.250000000    0.250000000    0.125000000
    0.500000000    0.500000000    0.000000000
    0.500000000    0.500000000    0.500000000
    0.750000000    0.750000000    0.125000000
    0.500000000    0.000000000    0.250000000
    0.750000000    0.250000000    0.375000000
