host
1.0
 5.0 0.0 0.0
 0.0 5.0 0.0
 0.0 0.0 10.0
C
2
Direct
0.0 0.0 0.0
0.5 0.5 0.1
