C8
    1.000000000
    3.560745109    0.000000000    0.000000000
    0.000000000    3.560745109    0.000000000
    0.000000000    0.000000000    7.121490218
C
8
Direct
    0.000000000    0.000000000    0.000000000
    0.500000000    0.500000000    0.000000000
    0.500000000    0.000000000    0.250000000
    0.000000000    0.500000000    0.250000000
    0.250000000    0.250000000    0.125000000
    0.750000000    0.750000000    0.125000000
    0.750000000    0.250000000    0.375000000
    0.250000000    0.750000000    0.375000000
