c1
    1.000000000
   12.319999933    0.000000000    0.000000000
   -1.231999993    2.133886583    0.000000000
    0.000000000    0.000000000   10.710999966
C    
20
Direct
    0.000000000    0.000000000    0.250000000
    0.200000000    0.000000000    0.250000000
    0.400000000    0.000000000    0.250000000
    0.600000000    0.000000000    0.250000000
    0.800000000    0.000000000    0.250000000
    0.000000000    0.000000000    0.749999982
    0.200000000    0.000000000    0.749999982
    0.400000000    0.000000000    0.749999982
    0.600000000    0.000000000    0.749999982
    0.800000000    0.000000000    0.749999982
    0.066666668    0.666666683    0.250000000
    0.266666668    0.666666683    0.250000000
    0.466666668    0.666666683    0.250000000
    0.666666668    0.666666683    0.250000000
    0.866666668    0.666666683    0.250000000
    0.133333331    0.333333314    0.749999982
    0.333333331    0.333333314    0.749999982
    0.533333331    0.333333314    0.749999982
    0.733333331    0.333333314    0.749999982
    0.933333331    0.333333314    0.749999982
