c1
    1.000000000
    9.855999947    0.000000000    0.000000000
   -4.927999973    8.535546333    0.000000000
    0.000000000    0.000000000   18.388833288
C    
64
Direct
    0.000000000    0.000000000    0.000000000
    0.750000000    0.000000000    0.000000000
    0.000000000    0.750000000    0.000000000
    0.750000000    0.750000000    0.000000000
    0.250000000    0.000000000    0.000000000
    0.250000000    0.750000000    0.000000000
    0.500000000    0.000000000    0.000000000
    0.500000000    0.750000000    0.000000000
    0.000000000    0.250000000    0.000000000
    0.750000000    0.250000000    0.000000000
    0.250000000    0.250000000    0.000000000
    0.500000000    0.250000000    0.000000000
    0.000000000    0.500000000    0.000000000
    0.750000000    0.500000000    0.000000000
    0.250000000    0.500000000    0.000000000
    0.500000000    0.500000000    0.000000000
    0.000000000    0.000000000    0.800000892
    0.750000000    0.000000000    0.800000892
    0.000000000    0.750000000    0.800000892
    0.750000000    0.750000000    0.800000892
    0.250000000    0.000000000    0.800000892
    0.250000000    0.750000000    0.800000892
    0.500000000    0.000000000    0.800000892
    0.500000000    0.750000000    0.800000892
    0.000000000    0.250000000    0.800000892
    0.750000000    0.250000000    0.800000892
    0.250000000    0.250000000    0.800000892
    0.500000000    0.250000000    0.800000892
    0.000000000    0.500000000    0.800000892
    0.750000000    0.500000000    0.800000892
    0.250000000    0.500000000    0.800000892
    0.500000000    0.500000000    0.800000892
    0.083333335    0.166666671    0.000000000
    0.833333335    0.166666671    0.000000000
    0.083333335    0.916666671    0.000000000
    0.833333335    0.916666671    0.000000000
    0.333333335    0.166666671    0.000000000
    0.333333335    0.916666671    0.000000000
    0.583333335    0.166666671    0.000000000
    0.583333335    0.916666671    0.000000000
    0.083333335    0.416666671    0.000000000
    0.833333335    0.416666671    0.000000000
    0.333333335    0.416666671    0.000000000
    0.583333335    0.416666671    0.000000000
    0.083333335    0.666666671    0.000000000
    0.833333335    0.666666671    0.000000000
    0.333333335    0.666666671    0.000000000
    0.583333335    0.666666671    0.000000000
    0.166666664    0.083333329    0.800000892
    0.916666664    0.083333329    0.800000892
    0.166666664    0.833333329    0.800000892
    0.916666664    0.833333329    0.800000892
    0.416666664    0.083333329    0.800000892
    0.416666664    0.833333329    0.800000892
    0.666666665    0.083333329    0.800000892
    0.666666665    0.833333329    0.800000892
    0.166666664    0.333333329    0.800000892
    0.916666664    0.333333329    0.800000892
    0.416666664    0.333333329    0.800000892
    0.666666665    0.333333329    0.800000892
    0.166666664    0.583333328    0.800000892
    0.916666664    0.583333328    0.800000892
    0.416666664    0.583333328    0.800000892
    0.666666665    0.583333328    0.800000892
