c1+mg1 o1
1.0
        8.5355463028         0.0000000000         0.0000000000
        0.0000000000        12.3199996948         0.0000000000
        0.0000000000         0.0000000000        14.3985795975
    C
   80
Direct
     0.000000000         0.000000000         0.000000000
     0.500000000         0.000000000         0.000000000
     0.000000000         0.200000004         0.000000000
     0.500000000         0.200000004         0.000000000
     0.000000000         0.400000008         0.000000000
     0.500000000         0.400000008         0.000000000
     0.000000000         0.600000031         0.000000000
     0.500000000         0.600000031         0.000000000
     0.000000000         0.800000015         0.000000000
     0.500000000         0.800000015         0.000000000
     0.250000000         0.100000002         0.000000000
     0.750000028         0.100000002         0.000000000
     0.250000000         0.300000015         0.000000000
     0.750000028         0.300000015         0.000000000
     0.250000000         0.500000000         0.000000000
     0.750000028         0.500000000         0.000000000
     0.250000000         0.699999985         0.000000000
     0.750000028         0.699999985         0.000000000
     0.250000000         0.899999969         0.000000000
     0.750000028         0.899999969         0.000000000
    -0.000000000        -0.000000000         0.766956230
     0.500000000        -0.000000000         0.766956230
    -0.000000000         0.200000004         0.766956230
     0.500000000         0.200000004         0.766956230
    -0.000000000         0.400000008         0.766956230
     0.500000000         0.400000008         0.766956230
     0.000000000         0.600000031         0.766956230
     0.500000000         0.600000031         0.766956230
     0.000000000         0.800000015         0.766956230
     0.500000000         0.800000015         0.766956230
     0.250000000         0.100000002         0.766956230
     0.750000028         0.100000002         0.766956230
     0.250000000         0.300000015         0.766956230
     0.750000028         0.300000015         0.766956230
     0.250000000         0.500000000         0.766956230
     0.750000028         0.500000000         0.766956230
     0.250000000         0.699999985         0.766956230
     0.750000028         0.699999985         0.766956230
     0.250000000         0.899999969         0.766956230
     0.750000028         0.899999969         0.766956230
     0.166666671         0.000000000         0.000000000
     0.666666685         0.000000000         0.000000000
     0.166666671         0.200000004         0.000000000
     0.666666685         0.200000004         0.000000000
     0.166666671         0.400000008         0.000000000
     0.666666685         0.400000008         0.000000000
     0.166666671         0.600000031         0.000000000
     0.666666685         0.600000031         0.000000000
     0.166666671         0.800000015         0.000000000
     0.666666685         0.800000015         0.000000000
     0.416666657         0.100000002         0.000000000
     0.916666601         0.100000002         0.000000000
     0.416666657         0.300000015         0.000000000
     0.916666601         0.300000015         0.000000000
     0.416666657         0.500000000         0.000000000
     0.916666601         0.500000000         0.000000000
     0.416666657         0.699999985         0.000000000
     0.916666601         0.699999985         0.000000000
     0.416666657         0.899999969         0.000000000
     0.916666601         0.899999969         0.000000000
     0.083333329         0.100000002         0.766956230
     0.583333287         0.100000002         0.766956230
     0.083333329         0.300000015         0.766956230
     0.583333287         0.300000015         0.766956230
     0.083333329         0.500000000         0.766956230
     0.583333287         0.500000000         0.766956230
     0.083333329         0.699999985         0.766956230
     0.583333287         0.699999985         0.766956230
     0.083333329         0.899999969         0.766956230
     0.583333287         0.899999969         0.766956230
     0.333333343        -0.000000000         0.766956230
     0.833333371        -0.000000000         0.766956230
     0.333333343         0.200000004         0.766956230
     0.833333371         0.200000004         0.766956230
     0.333333343         0.400000008         0.766956230
     0.833333371         0.400000008         0.766956230
     0.333333343         0.600000031         0.766956230
     0.833333371         0.600000031         0.766956230
     0.333333343         0.800000015         0.766956230
     0.833333371         0.800000015         0.766956230
