diamond
1.0
   3.560745109    0.000000000    0.000000000
  -0.000000000    3.560745109    0.000000000
   0.000000000    0.000000000    3.560745109
C
8
direct
   0.00    0.00    0.50
   0.25    0.25    0.75
   0.00    0.50    0.00
   0.25    0.75    0.25
   0.50    0.00    0.00
   0.75    0.25    0.25
   0.50    0.50    0.50
   0.75    0.75    0.75
