lonsdaleite
1.0
   1.251651409   -2.167923835    0.000000000
   1.251651409    2.167923835    0.000000000
   0.000000000    0.000000000    4.168968810
C
4
direct
   0.333333333    0.666666666    0.062805350
   0.666666666    0.333333333    0.562805350
   0.666666666    0.333333333    0.937194650
   0.333333333    0.666666666    0.437194650
