C
    1.000000000
    1.233645631   -2.136736911    0.000000000
    1.233645631    2.136736911    0.000000000
    0.000000000    0.000000000   15.606146000
C    
6
Direct
    0.000000000    0.000000000    0.125000000
    0.000000000    0.000000000    0.375000000
    0.000000000    0.000000000    0.875000000
    0.333333333    0.666666667    0.125000000
    0.666666667    0.333333333    0.375000000
    0.666666667    0.333333333    0.875000000

